100
128
16
19
59
1
12
29
53
33
39
17
5
7
26
2
13
5
1
16
9
1
60
5
5
1
14
41
34
47
37
13
12
4
30
4
10
22
43
53
23
35
34
52
4
25
25
48
6
40
7
5
35
37
9
22
25
6
48
5
3
20
21
4
10
55
28
20
1
34
52
25
41
2
36
11
53
42
53
45
63
41
61
45
26
20
33
5
29
45
57
3
55
59
1
62
7
33
34
36
7
59